#######################################
### Exact MIP solver for the HHCRSP ###
#######################################
-- Instance file: new-instances/HHCRSP_50_10_97_1.0_R_R.txt
-- Max threads: 4
-- Time limit: 999999 seconds
-- Use initial solution: No
Trivial flow violations prevented generating 6266 variables.
Model exported.
Version identifier: 20.1.0.0 | 2020-11-10 | 9bedb6d68
CPXPARAM_Threads                                 4
CPXPARAM_TimeLimit                               999999
Parallel mode: deterministic, using up to 4 threads for concurrent optimization:
 * Starting dual Simplex on 1 thread...
 * Starting Barrier on 3 threads...
Tried aggregator 1 time.
LP Presolve eliminated 1164 rows and 206 columns.
Reduced LP has 4702 rows, 4559 columns, and 36706 nonzeros.
Presolve time = 0.02 sec. (11.00 ticks)
Symmetry aggregator did 2600 additional substitutions.

Iteration log . . .
Iteration:     1   Dual objective     =             0.000000
Iteration:   203   Dual objective     =           154.333333

Dual crossover.
  Dual:  Fixing 86 variables.
       85 DMoves:  Infeasibility  2.84217526e-14  Objective  1.54360063e+02
        0 DMoves:  Infeasibility  1.90958792e-14  Objective  1.54360063e+02
  Dual:  Pushed 3, exchanged 83.
  Primal:  Fixing 25 variables.
       24 PMoves:  Infeasibility  0.00000000e+00  Objective  1.54360063e+02
        0 PMoves:  Infeasibility  0.00000000e+00  Objective  1.54360063e+02
  Primal:  Pushed 9, exchanged 16.

Dual simplex solved model.


Solution status from MIP model:
-- Processing time: 0.049 sec.
-- Memory used: 71.8135 MB
-- Best bound: inf
-- Obj value: 154.36
-- Gap: inf%
-- Total distance: 463.08
-- Total tardiness: 0
-- Largest tardiness: 0
